9 
6 
2 
1 
4 
7 
9 
3 
1 
7 
8 
4 
8 
10 
8 
11 
1 
7 
7 
9 
6 
10 
7 
2 
6 
7 
5 
2 
11 
9 
7 
6 
9 
9 
1 
8 
2 
6 
4 
1 
5 
6 
5 
7 
5 
12 
5 
3 
1 
8 
9 
5 
12 
10 
7 
5 
5 
9 
7 
7 
6 
10 
6 
4 
2 
5 
5 
7 
3 
5 
3 
4 
1 
6 
8 
11 
7 
5 
2 
6 
1 
7 
7 
7 
6 
3 
8 
5 
7 
7 
1 
5 
6 
5 
1 
1 
4 
2 
7 
6 
